(set-logic QF_SLIA)
(declare-fun var0 () String)
(assert (str.in_re var0 (re.++ ((_ re.loop 14 276) (re.++ (re.union (str.to_re "ZmF") (re.union (str.to_re "q") (re.union (str.to_re "ta>") (str.to_re "\u0022[")))) (re.++ (re.union (str.to_re "j") (re.union (str.to_re "1") (re.union (str.to_re "O\\") (str.to_re "]")))) (re.++ (re.union (str.to_re "D") (re.union (str.to_re "L'") (re.union (str.to_re "9") (str.to_re "t/")))) (re.union (str.to_re "=") (re.union (str.to_re "9|z") (re.union (str.to_re "Q'8") (str.to_re "bK.")))))))) (re.++ ((_ re.loop 6 753) (re.++ (re.union (str.to_re "r") (re.union (str.to_re "&a") (re.union (str.to_re "9{") (str.to_re "7")))) (re.++ (re.union (str.to_re ").c") (re.union (str.to_re "wcV") (re.union (str.to_re "UuM") (str.to_re "\u0022V")))) (re.++ (re.union (str.to_re "`") (re.union (str.to_re "r") (re.union (str.to_re "uL`") (str.to_re "l'")))) (re.union (str.to_re ")p") (re.union (str.to_re "nM") (re.union (str.to_re ";sb") (str.to_re "lKL")))))))) (re.++ ((_ re.loop 6 366) (re.++ (re.union (str.to_re ">") (re.union (str.to_re ".qD") (re.union (str.to_re "`") (str.to_re "^")))) (re.++ (re.union (str.to_re "np") (re.union (str.to_re "MI") (re.union (str.to_re "<=") (str.to_re "2")))) (re.++ (re.union (str.to_re "n") (re.union (str.to_re "%62") (re.union (str.to_re "l*") (str.to_re "E")))) (re.union (str.to_re "7@?") (re.union (str.to_re "G#N") (re.union (str.to_re "=") (str.to_re "o")))))))) ((_ re.loop 4 268) (re.++ (re.union (str.to_re "O") (re.union (str.to_re "b") (re.union (str.to_re "RiA") (str.to_re "'")))) (re.++ (re.union (str.to_re "fA8") (re.union (str.to_re "I") (re.union (str.to_re "29") (str.to_re "{)V")))) (re.++ (re.union (str.to_re "&") (re.union (str.to_re "&6") (re.union (str.to_re ",") (str.to_re ";l")))) (re.union (str.to_re "%i1") (re.union (str.to_re "XJ@") (re.union (str.to_re "x") (str.to_re "ik")))))))))))))
(assert (not (str.in_re var0 (re.++ ((_ re.loop 20 235) (re.++ (re.union (str.to_re ":y*") (re.union (str.to_re "4S)") (re.union (str.to_re ")FC") (str.to_re "q<")))) (re.++ (re.union (str.to_re "rU_") (re.union (str.to_re "4") (re.union (str.to_re "6PD") (str.to_re "_{2")))) (re.++ (re.union (str.to_re ":Q{") (re.union (str.to_re "YM|") (re.union (str.to_re "i") (str.to_re "zU")))) (re.union (str.to_re "o") (re.union (str.to_re "R") (re.union (str.to_re "QTX") (str.to_re "(")))))))) (re.++ ((_ re.loop 2 720) (re.++ (re.union (str.to_re ".h") (re.union (str.to_re ".\\s") (re.union (str.to_re "&1c") (str.to_re "'")))) (re.++ (re.union (str.to_re "GRS") (re.union (str.to_re "O>") (re.union (str.to_re "Y:S") (str.to_re "6*i")))) (re.++ (re.union (str.to_re ":iR") (re.union (str.to_re "T<.") (re.union (str.to_re "%,") (str.to_re "|Q")))) (re.union (str.to_re "[^$") (re.union (str.to_re "mP") (re.union (str.to_re "k+") (str.to_re "41")))))))) (re.++ ((_ re.loop 14 863) (re.++ (re.union (str.to_re "5.") (re.union (str.to_re "N#5") (re.union (str.to_re "sq1") (str.to_re "D5")))) (re.++ (re.union (str.to_re "?") (re.union (str.to_re "Tlm") (re.union (str.to_re "h.") (str.to_re "v")))) (re.++ (re.union (str.to_re "V,") (re.union (str.to_re "}W") (re.union (str.to_re "U_@") (str.to_re "vTT")))) (re.union (str.to_re "em") (re.union (str.to_re "T@") (re.union (str.to_re "lD") (str.to_re "8")))))))) ((_ re.loop 17 628) (re.++ (re.union (str.to_re "f=") (re.union (str.to_re "%q") (re.union (str.to_re "i)") (str.to_re "t")))) (re.++ (re.union (str.to_re "^;") (re.union (str.to_re "B%K") (re.union (str.to_re "=j^") (str.to_re "p")))) (re.++ (re.union (str.to_re "&4J") (re.union (str.to_re "x") (re.union (str.to_re "`y") (str.to_re "d[")))) (re.union (str.to_re "!9") (re.union (str.to_re "4!") (re.union (str.to_re "`o5") (str.to_re "X$6"))))))))))))))
(assert (not (str.in_re var0 (re.++ (re.* re.allchar) (re.++ (re.union (str.to_re "<") (re.union (str.to_re ">") (re.union (str.to_re "'") (re.union (str.to_re "\u0022") (str.to_re "&"))))) (re.* re.allchar))))))
(assert (<= 50 (str.len var0)))
(check-sat)
(get-model)
